
Gurobi 13.0.2 (win64) logging started Mon Jul 20 07:38:53 2026

Set parameter LogFile to value "E:\codes\ExactEBRP\results\gf_solver_backend_migration_round24r\runs\stage2__V12_M2__t_grb_ext_warm__300s\external\native_logs\L2.1_attempt_1.gurobi.log"
Gurobi Optimizer version 13.0.2 build v13.0.2rc1 (win64 - Windows 10.0 (19045.2))

CPU model: 12th Gen Intel(R) Core(TM) i7-12700KF, instruction set [SSE2|AVX|AVX2]
Thread count: 12 physical cores, 20 logical processors, using up to 1 threads

Non-default parameters:
TimeLimit  60
MIPGap  0
MIPGapAbs  0
LogToConsole  0
Threads  1

Optimize a model with 11351 rows, 1034 columns and 113600 nonzeros (Min)
Model fingerprint: 0x9f69cfc1
Model has 13 linear objective coefficients
Variable types: 516 continuous, 518 integer (434 binary)
Coefficient statistics:
  Matrix range     [5e-05, 1e+05]
  Objective range  [5e-05, 1e+00]
  Bounds range     [4e-01, 3e+02]
  RHS range        [2e-01, 1e+06]

Presolved: 10164 rows, 1004 columns, 134190 nonzeros

Continuing optimization...

   777   397    0.69387   11  156          -    0.69387      -   112   30s
   816   416    0.71243   30   69          -    0.69387      -   114   35s
   862   418    0.70104   20  114          -    0.69387      -   119   40s
H  885   395                       0.7185041    0.69387  3.43%   119   42s
   986   382    0.69400   18  135    0.71850    0.69387  3.43%   118   45s
  1314   315     cutoff   17         0.71850    0.70219  2.27%   113   50s

Cutting planes:
  Learned: 3
  Cover: 19
  Implied bound: 47
  Projected implied bound: 2
  Clique: 6
  MIR: 77
  StrongCG: 3
  Flow cover: 76
  GUB cover: 2
  Network: 7
  RLT: 3
  Relax-and-lift: 16
  BQP: 3

Explored 1641 nodes (197156 simplex iterations) in 53.61 seconds (110.72 work units)
Most recent optimization runtime was 23.60 seconds (55.86 work units)
Thread count was 1 (of 20 available processors)

Solution count 1: 0.718504 

Optimal solution found (tolerance 0.00e+00)
Best objective 7.185040707550e-01, best bound 7.185040707550e-01, gap 0.0000%

User-callback calls 7238, time in user-callback 0.00 sec
